============================[ Problem Statistics ]=============================|                                                                             ||  Number of variables:          4242                                         ||  Number of clauses:           10279                                         ||  Parse time:                   0.68 s                                       ||                                                                             |============================[ Search Statistics ]==============================| Conflicts |          ORIGINAL         |          LEARNT          | Progress ||           |    Vars  Clauses Literals |    Limit  Clauses Lit/Cl |          |===============================================================================|       100 |    1591     6484  1063445 |     2377      100     53 | 62.501 % ||       250 |    1591     6484  1063445 |     2615      250     75 | 62.495 % |===============================================================================restarts              : 3conflicts             : 364            (357 /sec)decisions             : 630            (0.00 % random) (618 /sec)propagations          : 11983          (11748 /sec)conflict literals     : 29759          (94.60 % deleted)CPU time              : 1.02 sSATISFIABLE